SCIP version 8.0.0 [precision: 8 byte] [memory: block] [mode: optimized] [LP solver: SoPlex 6.0.0] [GitHash: a740f0891e]
Copyright (C) 2002-2021 Konrad-Zuse-Zentrum fuer Informationstechnik Berlin (ZIB)

External libraries: 
  SoPlex 6.0.0         Linear Programming Solver developed at Zuse Institute Berlin (soplex.zib.de) [GitHash: 71a5873d]
  CppAD 20180000.0     Algorithmic Differentiation of C++ algorithms developed by B. Bell (github.com/coin-or/CppAD)
  ZLIB 1.2.11          General purpose compression library by J. Gailly and M. Adler (zlib.net)
  GMP 6.2.1            GNU Multiple Precision Arithmetic Library developed by T. Granlund (gmplib.org)
  ZIMPL 3.5.1          Zuse Institute Mathematical Programming Language developed by T. Koch (zimpl.zib.de)
  AMPL/MP 4e2d45c4     AMPL .nl file reader library (github.com/ampl/mp)
  PaPILO 2.0.0         parallel presolve for integer and linear optimization (github.com/scipopt/papilo) [GitHash: 76cafc1]
  bliss 0.73p          Computing Graph Automorphism Groups by T. Junttila and P. Kaski (www.tcs.hut.fi/Software/bliss/)
  Ipopt 3.13.2         Interior Point Optimizer developed by A. Waechter et.al. (github.com/coin-or/Ipopt)

user parameter file <scip.set> not found - using default parameters

read problem <../modeles/4_144.lp>
============

original problem has 1160 variables (576 bin, 0 int, 0 impl, 584 cont) and 593 constraints

solve problem
=============

presolving:
(round 1, fast)       4 del vars, 0 del conss, 0 add conss, 1232 chg bounds, 0 chg sides, 0 chg coeffs, 0 upgd conss, 0 impls, 4 clqs
(round 2, fast)       4 del vars, 0 del conss, 0 add conss, 1232 chg bounds, 0 chg sides, 568 chg coeffs, 0 upgd conss, 0 impls, 4 clqs
   (0.0s) running MILP presolver
   (0.0s) MILP presolver found nothing
(round 3, exhaustive) 4 del vars, 0 del conss, 0 add conss, 1232 chg bounds, 0 chg sides, 568 chg coeffs, 12 upgd conss, 0 impls, 4 clqs
(round 4, exhaustive) 29 del vars, 0 del conss, 0 add conss, 1232 chg bounds, 0 chg sides, 568 chg coeffs, 12 upgd conss, 3448 impls, 5 clqs
(round 5, exhaustive) 29 del vars, 0 del conss, 0 add conss, 1232 chg bounds, 0 chg sides, 568 chg coeffs, 58 upgd conss, 3448 impls, 5 clqs
(round 6, exhaustive) 56 del vars, 0 del conss, 0 add conss, 1232 chg bounds, 0 chg sides, 568 chg coeffs, 58 upgd conss, 6198 impls, 11 clqs
(round 7, fast)       56 del vars, 6 del conss, 0 add conss, 1232 chg bounds, 0 chg sides, 568 chg coeffs, 58 upgd conss, 6198 impls, 11 clqs
(round 8, exhaustive) 56 del vars, 6 del conss, 0 add conss, 1232 chg bounds, 0 chg sides, 568 chg coeffs, 88 upgd conss, 6198 impls, 11 clqs
(round 9, exhaustive) 81 del vars, 6 del conss, 0 add conss, 1232 chg bounds, 0 chg sides, 568 chg coeffs, 88 upgd conss, 9183 impls, 34 clqs
(round 10, fast)       82 del vars, 11 del conss, 0 add conss, 1233 chg bounds, 0 chg sides, 568 chg coeffs, 88 upgd conss, 9183 impls, 34 clqs
(round 11, exhaustive) 82 del vars, 11 del conss, 0 add conss, 1233 chg bounds, 0 chg sides, 568 chg coeffs, 117 upgd conss, 9183 impls, 34 clqs
(round 12, exhaustive) 107 del vars, 11 del conss, 0 add conss, 1233 chg bounds, 0 chg sides, 568 chg coeffs, 117 upgd conss, 10602 impls, 39 clqs
(round 13, fast)       107 del vars, 20 del conss, 0 add conss, 1233 chg bounds, 0 chg sides, 568 chg coeffs, 117 upgd conss, 10602 impls, 39 clqs
(round 14, exhaustive) 107 del vars, 20 del conss, 0 add conss, 1233 chg bounds, 0 chg sides, 568 chg coeffs, 139 upgd conss, 10602 impls, 39 clqs
(round 15, exhaustive) 132 del vars, 20 del conss, 0 add conss, 1233 chg bounds, 0 chg sides, 568 chg coeffs, 139 upgd conss, 12561 impls, 67 clqs
(round 16, fast)       133 del vars, 29 del conss, 0 add conss, 1234 chg bounds, 0 chg sides, 568 chg coeffs, 139 upgd conss, 12561 impls, 67 clqs
(round 17, exhaustive) 133 del vars, 29 del conss, 0 add conss, 1234 chg bounds, 0 chg sides, 568 chg coeffs, 163 upgd conss, 12561 impls, 67 clqs
(round 18, exhaustive) 158 del vars, 29 del conss, 0 add conss, 1234 chg bounds, 0 chg sides, 568 chg coeffs, 163 upgd conss, 15285 impls, 110 clqs
(round 19, fast)       159 del vars, 41 del conss, 0 add conss, 1235 chg bounds, 0 chg sides, 568 chg coeffs, 163 upgd conss, 15285 impls, 110 clqs
(round 20, exhaustive) 159 del vars, 41 del conss, 0 add conss, 1235 chg bounds, 0 chg sides, 568 chg coeffs, 178 upgd conss, 15285 impls, 110 clqs
(round 21, exhaustive) 184 del vars, 41 del conss, 0 add conss, 1235 chg bounds, 0 chg sides, 568 chg coeffs, 178 upgd conss, 17702 impls, 124 clqs
(round 22, fast)       184 del vars, 47 del conss, 0 add conss, 1235 chg bounds, 0 chg sides, 568 chg coeffs, 178 upgd conss, 17702 impls, 124 clqs
   (0.3s) running MILP presolver
   (0.3s) MILP presolver (20 rounds): 0 aggregations, 298 fixings, 0 bound changes
(round 23, medium)     482 del vars, 156 del conss, 0 add conss, 1235 chg bounds, 0 chg sides, 568 chg coeffs, 178 upgd conss, 17702 impls, 124 clqs
(round 24, fast)       482 del vars, 224 del conss, 0 add conss, 1235 chg bounds, 0 chg sides, 568 chg coeffs, 178 upgd conss, 17702 impls, 124 clqs
(round 25, exhaustive) 482 del vars, 224 del conss, 0 add conss, 1235 chg bounds, 0 chg sides, 568 chg coeffs, 199 upgd conss, 17702 impls, 124 clqs
(round 26, exhaustive) 508 del vars, 224 del conss, 0 add conss, 1235 chg bounds, 0 chg sides, 568 chg coeffs, 199 upgd conss, 22125 impls, 209 clqs
(round 27, fast)       508 del vars, 239 del conss, 0 add conss, 1235 chg bounds, 0 chg sides, 568 chg coeffs, 199 upgd conss, 22125 impls, 209 clqs
(round 28, exhaustive) 508 del vars, 239 del conss, 0 add conss, 1235 chg bounds, 0 chg sides, 568 chg coeffs, 206 upgd conss, 22125 impls, 209 clqs
(round 29, exhaustive) 533 del vars, 239 del conss, 0 add conss, 1238 chg bounds, 0 chg sides, 568 chg coeffs, 206 upgd conss, 26810 impls, 392 clqs
(round 30, fast)       533 del vars, 253 del conss, 0 add conss, 1238 chg bounds, 0 chg sides, 571 chg coeffs, 206 upgd conss, 26810 impls, 392 clqs
(round 31, exhaustive) 533 del vars, 253 del conss, 0 add conss, 1238 chg bounds, 0 chg sides, 571 chg coeffs, 210 upgd conss, 26810 impls, 392 clqs
(round 32, exhaustive) 558 del vars, 253 del conss, 0 add conss, 1241 chg bounds, 0 chg sides, 571 chg coeffs, 210 upgd conss, 31044 impls, 493 clqs
(round 33, fast)       558 del vars, 269 del conss, 0 add conss, 1241 chg bounds, 0 chg sides, 574 chg coeffs, 210 upgd conss, 31044 impls, 493 clqs
(round 34, exhaustive) 558 del vars, 269 del conss, 0 add conss, 1241 chg bounds, 0 chg sides, 574 chg coeffs, 211 upgd conss, 31044 impls, 493 clqs
   (0.4s) probing cycle finished: starting next cycle
   (0.4s) probing: 59/296 (19.9%) - 259 fixings, 0 aggregations, 32489 implications, 3 bound changes
   (0.4s) probing aborted: 50/50 successive totally useless probings
(round 35, exhaustive) 564 del vars, 269 del conss, 0 add conss, 1243 chg bounds, 0 chg sides, 574 chg coeffs, 211 upgd conss, 32695 impls, 600 clqs
(round 36, fast)       564 del vars, 273 del conss, 0 add conss, 1243 chg bounds, 0 chg sides, 576 chg coeffs, 211 upgd conss, 32695 impls, 600 clqs
   (0.4s) probing: 64/296 (21.6%) - 259 fixings, 0 aggregations, 32489 implications, 3 bound changes
   (0.4s) probing aborted: 50/50 successive totally useless probings
   (0.4s) symmetry computation started: requiring (bin +, int -, cont +), (fixed: bin -, int +, cont -)
   (0.4s) symmetry computation finished: 3 generators found (max: 1500, log10 of symmetry group size: 1.4)
(round 37, exhaustive) 564 del vars, 273 del conss, 1 add conss, 1243 chg bounds, 0 chg sides, 576 chg coeffs, 211 upgd conss, 32695 impls, 600 clqs
presolving (38 rounds: 38 fast, 25 medium, 24 exhaustive):
 564 deleted vars, 273 deleted constraints, 1 added constraints, 1243 tightened bounds, 0 added holes, 0 changed sides, 576 changed coefficients
 32695 implications, 600 cliques
presolved problem has 596 variables (296 bin, 0 int, 0 impl, 300 cont) and 314 constraints
      8 constraints of type <varbound>
      4 constraints of type <setppc>
    301 constraints of type <linear>
      1 constraints of type <orbitope>
Presolving Time: 0.45

 time | node  | left  |LP iter|LP it/n|mem/heur|mdpt |vars |cons |rows |cuts |sepa|confs|strbr|  dualbound   | primalbound  |  gap   | compl. 
* 0.5s|     1 |     0 |   123 |     - |    LP  |   0 | 596 | 314 | 313 |   0 |  0 |   0 |   0 |-2.000000e+00 |-2.000000e+00 |   0.00%| unknown
  0.5s|     1 |     0 |   123 |     - |    51M |   0 | 596 | 314 | 313 |   0 |  0 |   0 |   0 |-2.000000e+00 |-2.000000e+00 |   0.00%| unknown

SCIP Status        : problem is solved [optimal solution found]
Solving Time (sec) : 0.47
Solving Nodes      : 1
Primal Bound       : -2.00000000000000e+00 (1 solutions)
Dual Bound         : -2.00000000000000e+00
Gap                : 0.00 %

primal solution (original space):
=================================

objective value:                                   -2
y_2,54_                                             1 	(obj:0)
y_4,54_                                             1 	(obj:0)
y_1,55_                                             1 	(obj:0)
y_3,55_                                             1 	(obj:0)
x_2_                                             -0.5 	(obj:1)
x_4_                                             -0.5 	(obj:1)
t_3,55_                                             1 	(obj:0)
t_2,55_                                             1 	(obj:0)
x_3_                                             -0.5 	(obj:1)
t_4,55_                                             1 	(obj:0)
x_1_                                             -0.5 	(obj:1)
t_1,55_                                             1 	(obj:0)

Statistics
==========

SCIP Status        : problem is solved [optimal solution found]
Total Time         :       0.47
  solving          :       0.47
  presolving       :       0.45 (included in solving)
  reading          :       0.00
  copying          :       0.00 (0 times copied the problem)
Original Problem   :
  Problem name     : ../modeles/4_144.lp
  Variables        : 1160 (576 binary, 0 integer, 0 implicit integer, 584 continuous)
  Constraints      : 593 initial, 593 maximal
  Objective        : minimize, 4 non-zeros (abs.min = 1, abs.max = 1)
Presolved Problem  :
  Problem name     : t_../modeles/4_144.lp
  Variables        : 596 (296 binary, 0 integer, 0 implicit integer, 300 continuous)
  Constraints      : 314 initial, 314 maximal
  Objective        : minimize, 296 non-zeros (abs.min = 0.0277778, abs.max = 1.02778)
  Nonzeros         : 2376 constraint, 1488 clique table
Presolvers         :   ExecTime  SetupTime  Calls  FixedVars   AggrVars   ChgTypes  ChgBounds   AddHoles    DelCons    AddCons   ChgSides   ChgCoefs
  boundshift       :       0.00       0.00      0          0          0          0          0          0          0          0          0          0
  convertinttobin  :       0.00       0.00      0          0          0          0          0          0          0          0          0          0
  domcol           :       0.01       0.00     13          0          0          0          0          0          0          0          0          0
  dualagg          :       0.00       0.00      0          0          0          0          0          0          0          0          0          0
  dualcomp         :       0.00       0.00     13          0          0          0          0          0          0          0          0          0
  dualinfer        :       0.00       0.00      0          0          0          0          0          0          0          0          0          0
  dualsparsify     :       0.00       0.00      1          0          0          0          0          0          0          0          0          0
  gateextraction   :       0.00       0.00      0          0          0          0          0          0          0          0          0          0
  implics          :       0.00       0.00     25          0          0          0          5          0          0          0          0          0
  inttobinary      :       0.00       0.00      0          0          0          0          0          0          0          0          0          0
  milp             :       0.04       0.00      2        298          0          0          0          0          0          0          0          0
  qpkktref         :       0.00       0.00      0          0          0          0          0          0          0          0          0          0
  redvub           :       0.00       0.00      0          0          0          0          0          0          0          0          0          0
  sparsify         :       0.01       0.00      3          0          0          0          0          0          0          0          0          0
  stuffing         :       0.00       0.00      0          0          0          0          0          0          0          0          0          0
  trivial          :       0.00       0.00     38          0          0          0          0          0          0          0          0          0
  tworowbnd        :       0.00       0.00      0          0          0          0          0          0          0          0          0          0
  dualfix          :       0.00       0.00     38          0          0          0          0          0          0          0          0          0
  genvbounds       :       0.00       0.00      0          0          0          0          0          0          0          0          0          0
  probing          :       0.34       0.00     12        259          0          0          3          0          0          0          0          0
  pseudoobj        :       0.00       0.00      0          0          0          0          0          0          0          0          0          0
  symmetry         :       0.00       0.00      1          0          0          0          0          0          0          1          0          0
  vbounds          :       0.00       0.00     12          0          0          0          0          0          0          0          0          0
  varbound         :       0.00       0.00     59          0          0          0          1          0        199          0          0          7
  setppc           :       0.00       0.00     82          0          0          0          0          0          0          0          0          0
  linear           :       0.03       0.00     62          3          4          0       1234          0         74          0          0        569
  orbitope         :       0.00       0.00      1          0          0          0          0          0          0          0          0          0
  benders          :       0.00       0.00      0          0          0          0          0          0          0          0          0          0
  components       :       0.00       0.00      1          0          0          0          0          0          0          0          0          0
  root node        :          -          -      -          0          -          -          0          -          -          -          -          -
Constraints        :     Number  MaxNumber  #Separate #Propagate    #EnfoLP    #EnfoRelax  #EnfoPS    #Check   #ResProp    Cutoffs    DomReds       Cuts    Applied      Conss   Children
  benderslp        :          0          0          0          0          0          0          0         10          0          0          0          0          0          0          0
  integral         :          0          0          0          0          0          0          0         10          0          0          0          0          0          0          0
  varbound         :          8          8          0       3011          0          0          0          5          0          0          0          0          0          0          0
  setppc           :          4          4          0       3019          0          0          0          5          0          0          0          0          0          0          0
  linear           :        301        301          0       3019          0          0          0          1          0        292          0          0          0          0          0
  orbitope         :          1          1          0        394          0          0          0          1          0          0          0          0          0          0          0
  benders          :          0          0          0          0          0          0          0          2          0          0          0          0          0          0          0
  countsols        :          0          0          0          0          0          0          0          2          0          0          0          0          0          0          0
  components       :          0          0          0          0          0          0          0          0          0          0          0          0          0          0          0
Constraint Timings :  TotalTime  SetupTime   Separate  Propagate     EnfoLP     EnfoPS     EnfoRelax   Check    ResProp    SB-Prop
  benderslp        :       0.00       0.00       0.00       0.00       0.00       0.00       0.00       0.00       0.00       0.00
  integral         :       0.00       0.00       0.00       0.00       0.00       0.00       0.00       0.00       0.00       0.00
  varbound         :       0.01       0.00       0.00       0.01       0.00       0.00       0.00       0.00       0.00       0.00
  setppc           :       0.00       0.00       0.00       0.00       0.00       0.00       0.00       0.00       0.00       0.00
  linear           :       0.17       0.00       0.00       0.17       0.00       0.00       0.00       0.00       0.00       0.00
  orbitope         :       0.00       0.00       0.00       0.00       0.00       0.00       0.00       0.00       0.00       0.00
  benders          :       0.00       0.00       0.00       0.00       0.00       0.00       0.00       0.00       0.00       0.00
  countsols        :       0.00       0.00       0.00       0.00       0.00       0.00       0.00       0.00       0.00       0.00
  components       :       0.00       0.00       0.00       0.00       0.00       0.00       0.00       0.00       0.00       0.00
Propagators        : #Propagate   #ResProp    Cutoffs    DomReds
  dualfix          :          1          0          0          0
  genvbounds       :          0          0          0          0
  nlobbt           :          0          0          0          0
  obbt             :          0          0          0          0
  probing          :          0          0          0          0
  pseudoobj        :          1          0          0          0
  redcost          :          0          0          0          0
  rootredcost      :          0          0          0          0
  symmetry         :          0          0          0          0
  vbounds          :        269          0          0          0
Propagator Timings :  TotalTime  SetupTime   Presolve  Propagate    ResProp    SB-Prop
  dualfix          :       0.00       0.00       0.00       0.00       0.00       0.00
  genvbounds       :       0.00       0.00       0.00       0.00       0.00       0.00
  nlobbt           :       0.00       0.00       0.00       0.00       0.00       0.00
  obbt             :       0.00       0.00       0.00       0.00       0.00       0.00
  probing          :       0.34       0.00       0.34       0.00       0.00       0.00
  pseudoobj        :       0.00       0.00       0.00       0.00       0.00       0.00
  redcost          :       0.00       0.00       0.00       0.00       0.00       0.00
  rootredcost      :       0.00       0.00       0.00       0.00       0.00       0.00
  symmetry         :       0.00       0.00       0.00       0.00       0.00       0.00
  vbounds          :       0.00       0.00       0.00       0.00       0.00       0.00
Orbital fixing     :
  vars fixed to 0  :          0
  vars fixed to 1  :          0
Conflict Analysis  :       Time      Calls    Success    DomReds  Conflicts   Literals    Reconvs ReconvLits   Dualrays   Nonzeros   LP Iters   (pool size: [--,--])
  propagation      :       0.00          0          0          -          0        0.0          0        0.0          -          -          -
  infeasible LP    :       0.00          0          0          -          0        0.0          0        0.0          0        0.0          0
  bound exceed. LP :       0.00          0          0          -          0        0.0          0        0.0          0        0.0          0
  strong branching :       0.00          0          0          -          0        0.0          0        0.0          -          -          0
  pseudo solution  :       0.00          0          0          -          0        0.0          0        0.0          -          -          -
  applied globally :       0.00          -          -          0          0        0.0          -          -          0          -          -
  applied locally  :          -          -          -          0          0        0.0          -          -          0          -          -
Separators         :   ExecTime  SetupTime      Calls    Cutoffs    DomReds       Cuts    Applied      Conss
  cut pool         :       0.00                     0          -          -          0          -          -    (maximal pool size: 0)
  aggregation      :       0.00       0.00          0          0          0          0          0          0
  > cmir           :          -          -          -          -          -          -          0          -
  > flowcover      :          -          -          -          -          -          -          0          -
  > knapsackcover  :          -          -          -          -          -          -          0          -
  cgmip            :       0.00       0.00          0          0          0          0          0          0
  clique           :       0.00       0.00          0          0          0          0          0          0
  closecuts        :       0.00       0.00          0          0          0          0          0          0
  convexproj       :       0.00       0.00          0          0          0          0          0          0
  disjunctive      :       0.00       0.00          0          0          0          0          0          0
  eccuts           :       0.00       0.00          0          0          0          0          0          0
  gauge            :       0.00       0.00          0          0          0          0          0          0
  gomory           :       0.00       0.00          0          0          0          0          0          0
  > gomorymi       :          -          -          -          -          -          -          0          -
  > strongcg       :          -          -          -          -          -          -          0          -
  impliedbounds    :       0.00       0.00          0          0          0          0          0          0
  interminor       :       0.00       0.00          0          0          0          0          0          0
  intobj           :       0.00       0.00          0          0          0          0          0          0
  mcf              :       0.00       0.00          0          0          0          0          0          0
  minor            :       0.00       0.00          0          0          0          0          0          0
  mixing           :       0.00       0.00          0          0          0          0          0          0
  oddcycle         :       0.00       0.00          0          0          0          0          0          0
  rapidlearning    :       0.00       0.00          0          0          0          0          0          0
  rlt              :       0.00       0.00          0          0          0          0          0          0
  zerohalf         :       0.00       0.00          0          0          0          0          0          0
Cutselectors       :   ExecTime  SetupTime
  hybrid           :       0.00       0.00
Pricers            :   ExecTime  SetupTime      Calls       Vars
  problem variables:       0.00          -          0          0
Branching Rules    :   ExecTime  SetupTime   BranchLP  BranchExt   BranchPS    Cutoffs    DomReds       Cuts      Conss   Children
  allfullstrong    :       0.00       0.00          0          0          0          0          0          0          0          0
  cloud            :       0.00       0.00          0          0          0          0          0          0          0          0
  distribution     :       0.00       0.00          0          0          0          0          0          0          0          0
  fullstrong       :       0.00       0.00          0          0          0          0          0          0          0          0
  inference        :       0.00       0.00          0          0          0          0          0          0          0          0
  leastinf         :       0.00       0.00          0          0          0          0          0          0          0          0
  lookahead        :       0.00       0.00          0          0          0          0          0          0          0          0
  mostinf          :       0.00       0.00          0          0          0          0          0          0          0          0
  multaggr         :       0.00       0.00          0          0          0          0          0          0          0          0
  nodereopt        :       0.00       0.00          0          0          0          0          0          0          0          0
  pscost           :       0.00       0.00          0          0          0          0          0          0          0          0
  random           :       0.00       0.00          0          0          0          0          0          0          0          0
  relpscost        :       0.00       0.00          0          0          0          0          0          0          0          0
  vanillafullstrong:       0.00       0.00          0          0          0          0          0          0          0          0
Primal Heuristics  :   ExecTime  SetupTime      Calls      Found       Best
  LP solutions     :       0.00          -          -          1          1
  relax solutions  :       0.00          -          -          0          0
  pseudo solutions :       0.00          -          -          0          0
  strong branching :       0.00          -          -          0          0
  actconsdiving    :       0.00       0.00          0          0          0
  adaptivediving   :       0.00       0.00          0          0          0
  alns             :       0.00       0.00          0          0          0
  bound            :       0.00       0.00          0          0          0
  clique           :       0.00       0.00          1          0          0
  coefdiving       :       0.00       0.00          0          0          0
  completesol      :       0.00       0.00          0          0          0
  conflictdiving   :       0.00       0.00          0          0          0
  crossover        :       0.00       0.00          0          0          0
  dins             :       0.00       0.00          0          0          0
  distributiondivin:       0.00       0.00          0          0          0
  dps              :       0.00       0.00          0          0          0
  dualval          :       0.00       0.00          0          0          0
  farkasdiving     :       0.00       0.00          0          0          0
  feaspump         :       0.00       0.00          0          0          0
  fixandinfer      :       0.00       0.00          0          0          0
  fracdiving       :       0.00       0.00          0          0          0
  gins             :       0.00       0.00          0          0          0
  guideddiving     :       0.00       0.00          0          0          0
  indicator        :       0.00       0.00          0          0          0
  intdiving        :       0.00       0.00          0          0          0
  intshifting      :       0.00       0.00          0          0          0
  linesearchdiving :       0.00       0.00          0          0          0
  localbranching   :       0.00       0.00          0          0          0
  locks            :       0.01       0.00          1          0          0
  lpface           :       0.00       0.00          0          0          0
  mpec             :       0.00       0.00          0          0          0
  multistart       :       0.00       0.00          0          0          0
  mutation         :       0.00       0.00          0          0          0
  nlpdiving        :       0.00       0.00          0          0          0
  objpscostdiving  :       0.00       0.00          0          0          0
  octane           :       0.00       0.00          0          0          0
  ofins            :       0.00       0.00          0          0          0
  oneopt           :       0.00       0.00          0          0          0
  padm             :       0.00       0.00          0          0          0
  proximity        :       0.00       0.00          0          0          0
  pscostdiving     :       0.00       0.00          0          0          0
  randrounding     :       0.00       0.00          0          0          0
  rens             :       0.00       0.00          0          0          0
  reoptsols        :       0.00       0.00          0          0          0
  repair           :       0.00       0.00          0          0          0
  rins             :       0.00       0.00          0          0          0
  rootsoldiving    :       0.00       0.00          0          0          0
  rounding         :       0.00       0.00          0          0          0
  shiftandpropagate:       0.00       0.00          1          0          0
  shifting         :       0.00       0.00          0          0          0
  simplerounding   :       0.00       0.00          0          0          0
  subnlp           :       0.00       0.00          0          0          0
  trivial          :       0.00       0.00          2          0          0
  trivialnegation  :       0.00       0.00          0          0          0
  trustregion      :       0.00       0.00          0          0          0
  trysol           :       0.00       0.00          0          0          0
  twoopt           :       0.00       0.00          0          0          0
  undercover       :       0.00       0.00          0          0          0
  vbounds          :       0.00       0.00          0          0          0
  veclendiving     :       0.00       0.00          0          0          0
  zeroobj          :       0.00       0.00          0          0          0
  zirounding       :       0.00       0.00          0          0          0
  other solutions  :          -          -          -          0          -
Diving (single)    :      Calls      Nodes   LP Iters Backtracks  Conflicts   MinDepth   MaxDepth   AvgDepth  RoundSols  NLeafSols  MinSolDpt  MaxSolDpt  AvgSolDpt
  actconsdiving    :          0          -          -          -          -          -          -          -          -          -          -          -          -
  coefdiving       :          0          -          -          -          -          -          -          -          -          -          -          -          -
  conflictdiving   :          0          -          -          -          -          -          -          -          -          -          -          -          -
  distributiondivin:          0          -          -          -          -          -          -          -          -          -          -          -          -
  farkasdiving     :          0          -          -          -          -          -          -          -          -          -          -          -          -
  fracdiving       :          0          -          -          -          -          -          -          -          -          -          -          -          -
  guideddiving     :          0          -          -          -          -          -          -          -          -          -          -          -          -
  linesearchdiving :          0          -          -          -          -          -          -          -          -          -          -          -          -
  pscostdiving     :          0          -          -          -          -          -          -          -          -          -          -          -          -
  veclendiving     :          0          -          -          -          -          -          -          -          -          -          -          -          -
Diving (adaptive)  :      Calls      Nodes   LP Iters Backtracks  Conflicts   MinDepth   MaxDepth   AvgDepth  RoundSols  NLeafSols  MinSolDpt  MaxSolDpt  AvgSolDpt
  actconsdiving    :          0          -          -          -          -          -          -          -          -          -          -          -          -
  coefdiving       :          0          -          -          -          -          -          -          -          -          -          -          -          -
  conflictdiving   :          0          -          -          -          -          -          -          -          -          -          -          -          -
  distributiondivin:          0          -          -          -          -          -          -          -          -          -          -          -          -
  farkasdiving     :          0          -          -          -          -          -          -          -          -          -          -          -          -
  fracdiving       :          0          -          -          -          -          -          -          -          -          -          -          -          -
  guideddiving     :          0          -          -          -          -          -          -          -          -          -          -          -          -
  linesearchdiving :          0          -          -          -          -          -          -          -          -          -          -          -          -
  pscostdiving     :          0          -          -          -          -          -          -          -          -          -          -          -          -
  veclendiving     :          0          -          -          -          -          -          -          -          -          -          -          -          -
Neighborhoods      :      Calls  SetupTime  SolveTime SolveNodes       Sols       Best       Exp3  EpsGreedy        UCB TgtFixRate  Opt  Inf Node Stal  Sol  Usr Othr Actv
  rens             :          0       0.00       0.00          0          0          0    0.00000   -1.00000    1.00000      0.900    0    0    0    0    0    0    0    1
  rins             :          0       0.00       0.00          0          0          0    0.00000   -1.00000    1.00000      0.900    0    0    0    0    0    0    0    1
  mutation         :          0       0.00       0.00          0          0          0    0.00000   -1.00000    1.00000      0.900    0    0    0    0    0    0    0    1
  localbranching   :          0       0.00       0.00          0          0          0    0.00000   -1.00000    1.00000      0.900    0    0    0    0    0    0    0    1
  crossover        :          0       0.00       0.00          0          0          0    0.00000   -1.00000    1.00000      0.900    0    0    0    0    0    0    0    1
  proximity        :          0       0.00       0.00          0          0          0    0.00000   -1.00000    1.00000      0.900    0    0    0    0    0    0    0    1
  zeroobjective    :          0       0.00       0.00          0          0          0    0.00000   -1.00000    1.00000      0.900    0    0    0    0    0    0    0    1
  dins             :          0       0.00       0.00          0          0          0    0.00000   -1.00000    1.00000      0.900    0    0    0    0    0    0    0    1
  trustregion      :          0       0.00       0.00          0          0          0    0.00000   -1.00000    1.00000      0.900    0    0    0    0    0    0    0    0
LP                 :       Time      Calls Iterations  Iter/call   Iter/sec  Time-0-It Calls-0-It    ItLimit
  primal LP        :       0.00          0          0       0.00          -       0.00          0
  dual LP          :       0.00          1        123     123.00          -       0.00          0
  lex dual LP      :       0.00          0          0       0.00          -
  barrier LP       :       0.00          0          0       0.00          -       0.00          0
  resolve instable :       0.00          0          0       0.00          -
  diving/probing LP:       0.00          0          0       0.00          -
  strong branching :       0.00          0          0       0.00          -          -          -          0
    (at root node) :          -          0          0       0.00          -
  conflict analysis:       0.00          0          0       0.00          -
B&B Tree           :
  number of runs   :          1
  nodes            :          1 (0 internal, 1 leaves)
  feasible leaves  :          0
  infeas. leaves   :          0
  objective leaves :          1
  nodes (total)    :          1 (0 internal, 1 leaves)
  nodes left       :          0
  max depth        :          0
  max depth (total):          0
  backtracks       :          0 (0.0%)
  early backtracks :          0 (0.0%)
  nodes exc. ref.  :          0 (0.0%)
  delayed cutoffs  :          0
  repropagations   :          0 (0 domain reductions, 0 cutoffs)
  avg switch length:       2.00
  switching time   :       0.00
Estim. Tree Size   :          1
Estimation Tree    : 1 nodes (1 visited, 0 internal, 1 leaves, 0 open), weight: 1.0000 completed 1.0000
Estimations        :      estim      value      trend resolution     smooth
  wbe              :          1          -          -          -          -
  tree-profile     :         -1          -          -          -          -
  gap              :          1    1.00000    1.00000          1          1
  tree-weight      :          1    1.00000    1.00000          1          1
  leaf-frequency   :          1    0.50000    1.00000          1          1
  ssg              :          1    0.00000   -1.00000          1          1
  open-nodes       :          1    0.00000    0.00000          1          1
Root Node          :
  First LP value   : -2.00000000000000e+00
  First LP Iters   :        123 (59506.53 Iter/sec)
  First LP Time    :       0.00
  Final Dual Bound : -2.00000000000000e+00
  Final Root Iters :        123
  Root LP Estimate :                     -
Solution           :
  Solutions found  :          1 (1 improvements)
  First Solution   : -2.00000000000000e+00   (in run 1, after 1 nodes, 0.47 seconds, depth 0, found by <relaxation>)
  Gap First Sol.   :       0.00 %
  Gap Last Sol.    :       0.00 %
  Primal Bound     : -2.00000000000000e+00   (in run 1, after 1 nodes, 0.47 seconds, depth 0, found by <relaxation>)
  Dual Bound       : -2.00000000000000e+00
  Gap              :       0.00 %
Integrals          :      Total       Avg%
  primal-dual      :      46.88      99.96
  primal-ref       :          -          - (not evaluated)
  dual-ref         :          -          - (not evaluated)
